14304.43,48.68,55.31
14786.47,47.1,53.5
13748.11,50.65,57.54
12517.65,55.63,63.2
14970.09,46.52,52.85
14151.57,49.21,55.9
15810.7,44.05,50.04
14408.84,48.33,54.9
15073.26,46.2,52.48
13195.48,52.78,59.95
14247.3,48.88,55.53
13302.92,52.35,59.47
14608.74,47.67,54.15
14647.84,47.54,54.01
13299.12,52.36,59.49
14331.25,48.59,55.2
13505.5,51.56,58.58
13320.68,52.28,59.39
15323.42,45.45,51.63
13874.89,50.19,57.02
